; benchmark generated from python API
(set-info :status unknown)
(declare-fun S_2 () Real)
(declare-fun C () Real)
(declare-fun A_3 () Real)
(declare-fun L_2 () Real)
(declare-fun A_2 () Real)
(declare-fun S_1 () Real)
(declare-fun L_1 () Real)
(declare-fun A_1 () Real)
(declare-fun S_3 () Real)
(declare-fun L_0 () Real)
(declare-fun S_0 () Real)
(declare-fun A_0 () Real)
(declare-fun S_4 () Real)
(declare-fun L_4 () Real)
(declare-fun A_4 () Real)
(declare-fun B () Real)
(assert
 (let (($x3741 (<= (+ (* (- 1.0) L_2) A_3 (* (- 2.0) C) (* (- 1.0) S_2)) 0.0)))
 (let (($x34 (>= L_0 0.0)))
 (let (($x612 (>= C 5.0)))
 (let (($x772 (>= B 5.0)))
 (let (($x3735 (<= (+ (* (- 1.0) L_2) A_3 (* (- 3.0) C) (* (- 1.0) S_1)) 0.0)))
 (let (($x3731 (<= (+ (* (- 1.0) L_2) A_3 (* (- 4.0) C) (* (- 1.0) S_0)) 0.0)))
 (let (($x3726 (<= (+ (* (- 1.0) L_2) A_3 (* (- 1.0) A_0) (* (- 3.0) C) L_0) 0.0)))
 (let (($x3652 (<= (+ (* (- 1.0) L_2) A_3 (* (- 1.0) A_1) (* (- 2.0) C) L_1) 0.0)))
 (let (($x1573 (<= (+ A_1 (* (- 1.0) S_2) (* (- 1.0) L_1)) 0.0)))
 (let (($x3686 (= (+ (* (- 1.0) L_2) A_3 (* (- 1.0) A_4) C L_4 B) 0.0)))
 (let (($x464 (= L_4 L_2)))
 (let (($x470 (not (<= 0.0 (+ (* (- 1.0) L_1) L_0)))))
 (let (($x61 (= L_2 L_1)))
 (let (($x3695 (or $x61 $x470 (<= (+ (* (- 1.0) A_2) A_1 C L_2 (* (- 1.0) L_0)) 0.0))))
 (let ((?x223 (* (- 1.0) B)))
 (let ((?x249 (* (- 1.0) L_2)))
 (let ((?x960 (* (- 2.0) C)))
 (let ((?x1022 (* (- 1.0) A_0)))
 (let (($x3626 (<= 0.0 (+ A_2 (* (- 1.0) A_1) (* (- 1.0) C) L_1 ?x249 ?x223))))
 (let (($x1598 (= (+ (* (- 1.0) A_2) A_1 C (* (- 1.0) L_1) L_2 B) 0.0)))
 (let (($x3631 (or $x61 $x3626 (<= (+ (* (- 1.0) A_2) (* 2.0 C) S_0 L_2 B) 0.0))))
 (let (($x51 (= L_1 L_0)))
 (let (($x3962 (or $x51 (<= (+ ?x249 A_3 (* (- 1.0) A_1) ?x960 L_1 B) 0.0))))
 (let (($x5058 (or $x51 (<= (+ (* (- 1.0) A_1) (* (- 1.0) C) S_2 L_1 B) 0.0))))
 (let (($x3918 (or $x51 $x61 (= (+ (* (- 1.0) A_2) A_1 C (* (- 1.0) L_1) L_2) 0.0))))
 (let (($x993 (<= (+ A_1 (* (- 1.0) C) (* (- 1.0) S_1) (* (- 1.0) L_1) ?x223) 0.0)))
 (let (($x1024 (<= (+ A_1 ?x1022 (* (- 1.0) C) (* (- 1.0) L_1) ?x223 L_0) 0.0)))
 (let (($x987 (<= (+ A_1 (* (- 1.0) S_2) (* (- 1.0) L_1) ?x223) 0.0)))
 (let (($x108 (>= S_1 S_0)))
 (let (($x111 (>= S_2 S_1)))
 (let (($x117 (>= S_4 S_3)))
 (let (($x119 (>= A_1 A_0)))
 (let (($x120 (>= A_2 A_1)))
 (let (($x121 (>= A_3 A_2)))
 (and (<= (+ A_3 ?x249) S_3) $x121 $x120 $x119 $x117 $x111 $x108 (or $x470 $x51) $x987 $x1024 (<= (+ A_1 ?x960 (* (- 1.0) S_0) (* (- 1.0) L_1) ?x223) 0.0) $x993 $x3918 (or $x51 (<= (+ (* (- 1.0) A_1) S_1 L_1 B) 0.0)) $x5058 (or (not (<= 0.0 (+ A_3 (* (- 1.0) A_4) C B))) $x464) (or $x51 (<= 0.0 (+ (* (- 1.0) A_2) A_1 C)) (not $x61)) (or $x51 (<= (+ (* (- 1.0) A_1) C S_0 L_1 B) 0.0)) $x3962 (<= (+ L_2 (* (- 1.0) A_3) (* (- 1.0) C) S_4) 0.0) (or $x61 (not (<= 0.0 (+ L_1 ?x249)))) (or $x61 (<= (+ (* (- 1.0) A_2) S_2 L_2 B) 0.0)) (or $x61 (<= (+ (* (- 1.0) A_2) C S_1 L_2 B) 0.0)) (or $x61 (<= (+ A_3 (* (- 1.0) A_2) (* (- 1.0) C) B) 0.0)) $x3631 (<= (+ A_2 (* (- 1.0) C) (* (- 1.0) S_2) ?x249 ?x223) 0.0) (or $x1598 (not $x3626)) (or (not $x464) (<= 0.0 (+ A_3 (* (- 1.0) A_4) C B))) (<= (+ A_2 (* (- 3.0) C) (* (- 1.0) S_0) ?x249 ?x223) 0.0) (<= (+ A_2 ?x960 (* (- 1.0) S_1) ?x249 ?x223) 0.0) (<= (+ A_2 ?x1022 ?x960 ?x249 ?x223 L_0) 0.0) $x3695 (or $x464 $x3686) (<= (+ ?x960 S_1 (* (- 1.0) S_0)) 0.0) (<= (+ (* (- 1.0) A_1) (* (- 1.0) C) S_2 L_1) 0.0) (<= (+ ?x1022 (* (- 1.0) C) S_1 L_0) 0.0) (or $x1573 (<= (+ C (* (- 1.0) S_2) S_0) 0.0)) $x3652 $x3726 (<= (+ (* (- 3.0) C) S_2 (* (- 1.0) S_0)) 0.0) (<= (+ ?x1022 ?x960 S_2 L_0) 0.0) (<= (+ ?x960 S_2 (* (- 1.0) S_1)) 0.0) $x3731 $x3735 $x772 $x612 $x34 (<= (+ (* (- 1.0) A_4) L_4 S_4) 0.0) (<= (+ ?x1022 S_0 L_0) 0.0) (<= (+ L_2 S_3 (* (- 1.0) A_3)) 0.0) (<= (+ (* (- 1.0) A_1) L_1 S_1) 0.0) (<= (+ (* (- 1.0) A_2) S_2 L_2) 0.0) (<= (+ A_3 (* (- 1.0) A_2) (* (- 1.0) C)) 0.0) $x3741))))))))))))))))))))))))))))))))))))
(check-sat)
